     Program PWSCF v.6.4 starts on 22May2019 at 11:33:44

     Current dimensions of program PWSCF are:
     Max number of different atomic species (ntypx) = 10
     Max number of k-points (npk) =  40000
     Max angular momentum in pseudopotentials (lmaxx) =  3
     Found symmetry operation: I + (  0.0000 -0.5000 -0.5000)
     This is a supercell, fractional translations are disabled

     bravais-lattice index     =            1
     lattice parameter (alat)  =       7.8934  a.u.
     unit-cell volume          =     491.8017 (a.u.)^3
     number of atoms/cell      =            8
     number of atomic types    =            2
     number of electrons       =        96.00
     number of Kohn-Sham states=           58
     kinetic-energy cutoff     =      60.0000  Ry
     charge density cutoff     =     240.0000  Ry
     convergence threshold     =      1.0E-10
     mixing beta               =       0.3000
     number of iterations used =            8  plain     mixing
     Exchange-correlation      = PBE ( 1  4  3  4 0 0)

     celldm(1)=   7.893386  celldm(2)=   0.000000  celldm(3)=   0.000000
     celldm(4)=   0.000000  celldm(5)=   0.000000  celldm(6)=   0.000000

     crystal axes: (cart. coord. in units of alat)
               a(1) = (   1.000000   0.000000   0.000000 )
               a(2) = (   0.000000   1.000000   0.000000 )
               a(3) = (   0.000000   0.000000   1.000000 )

     reciprocal axes: (cart. coord. in units 2 pi/alat)
               b(1) = (  1.000000  0.000000  0.000000 )
               b(2) = (  0.000000  1.000000  0.000000 )
               b(3) = (  0.000000  0.000000  1.000000 )

     PseudoPot. # 1 for O  read from file:
     /home/dirac/tmcs/newc5616/wannier90-3.0.0/pseudo/O_ONCV_PBE-1.0.upf
     MD5 check sum: 80a85145cbbb6f60b39549a50e3ff56c
     Pseudo is Norm-conserving, Zval =  6.0
     Generated using ONCVPSP code by D. R. Hamann
     Using radial grid of  602 points,  4 beta functions with:
                l(1) =   0
                l(2) =   0
                l(3) =   1
                l(4) =   1

     PseudoPot. # 2 for Ni read from file:
     /home/dirac/tmcs/newc5616/wannier90-3.0.0/pseudo/Ni_ONCV_PBE-1.0.upf
     MD5 check sum: b4845633f316de50760b86b4f4abc5a4
     Pseudo is Norm-conserving, Zval = 18.0
     Generated using ONCVPSP code by D. R. Hamann
     Using radial grid of  602 points,  6 beta functions with:
                l(1) =   0
                l(2) =   0
                l(3) =   1
                l(4) =   1
                l(5) =   2
                l(6) =   2

     atomic species   valence    mass     pseudopotential
        O              6.00     8.00000     O ( 1.00)
        Ni            18.00    28.00000     Ni( 1.00)

     48 Sym. Ops., with inversion, found

   Cartesian axes

     site n.     atom                  positions (alat units)
         1           O   tau(   1) = (   0.0000000   0.0000000   0.0000000  )
         2           O   tau(   2) = (   0.0000000   0.5000000   0.5000000  )
         3           O   tau(   3) = (   0.5000000   0.0000000   0.5000000  )
         4           O   tau(   4) = (   0.5000000   0.5000000   0.0000000  )
         5           Ni  tau(   5) = (   0.5000000   0.5000000   0.5000000  )
         6           Ni  tau(   6) = (   0.0000000   0.0000000   0.5000000  )
         7           Ni  tau(   7) = (   0.0000000   0.5000000   0.0000000  )
         8           Ni  tau(   8) = (   0.5000000   0.0000000   0.0000000  )

     number of k points=    35  gaussian smearing, width (Ry)=  0.0100
                       cart. coord. in units 2pi/alat
        k(    1) = (   0.0000000   0.0000000   0.0000000), wk =   0.0039062
        k(    2) = (   0.0000000   0.0000000   0.1250000), wk =   0.0234375
        k(    3) = (   0.0000000   0.0000000   0.2500000), wk =   0.0234375
        k(    4) = (   0.0000000   0.0000000   0.3750000), wk =   0.0234375
        k(    5) = (   0.0000000   0.0000000  -0.5000000), wk =   0.0117188
        k(    6) = (   0.0000000   0.1250000   0.1250000), wk =   0.0468750
        k(    7) = (   0.0000000   0.1250000   0.2500000), wk =   0.0937500
        k(    8) = (   0.0000000   0.1250000   0.3750000), wk =   0.0937500
        k(    9) = (   0.0000000   0.1250000  -0.5000000), wk =   0.0468750
        k(   10) = (   0.0000000   0.2500000   0.2500000), wk =   0.0468750
        k(   11) = (   0.0000000   0.2500000   0.3750000), wk =   0.0937500
        k(   12) = (   0.0000000   0.2500000  -0.5000000), wk =   0.0468750
        k(   13) = (   0.0000000   0.3750000   0.3750000), wk =   0.0468750
        k(   14) = (   0.0000000   0.3750000  -0.5000000), wk =   0.0468750
        k(   15) = (   0.0000000  -0.5000000  -0.5000000), wk =   0.0117188
        k(   16) = (   0.1250000   0.1250000   0.1250000), wk =   0.0312500
        k(   17) = (   0.1250000   0.1250000   0.2500000), wk =   0.0937500
        k(   18) = (   0.1250000   0.1250000   0.3750000), wk =   0.0937500
        k(   19) = (   0.1250000   0.1250000  -0.5000000), wk =   0.0468750
        k(   20) = (   0.1250000   0.2500000   0.2500000), wk =   0.0937500
        k(   21) = (   0.1250000   0.2500000   0.3750000), wk =   0.1875000
        k(   22) = (   0.1250000   0.2500000  -0.5000000), wk =   0.0937500
        k(   23) = (   0.1250000   0.3750000   0.3750000), wk =   0.0937500
        k(   24) = (   0.1250000   0.3750000  -0.5000000), wk =   0.0937500
        k(   25) = (   0.1250000  -0.5000000  -0.5000000), wk =   0.0234375
        k(   26) = (   0.2500000   0.2500000   0.2500000), wk =   0.0312500
        k(   27) = (   0.2500000   0.2500000   0.3750000), wk =   0.0937500
        k(   28) = (   0.2500000   0.2500000  -0.5000000), wk =   0.0468750
        k(   29) = (   0.2500000   0.3750000   0.3750000), wk =   0.0937500
        k(   30) = (   0.2500000   0.3750000  -0.5000000), wk =   0.0937500
        k(   31) = (   0.2500000  -0.5000000  -0.5000000), wk =   0.0234375
        k(   32) = (   0.3750000   0.3750000   0.3750000), wk =   0.0312500
        k(   33) = (   0.3750000   0.3750000  -0.5000000), wk =   0.0468750
        k(   34) = (   0.3750000  -0.5000000  -0.5000000), wk =   0.0234375
        k(   35) = (  -0.5000000  -0.5000000  -0.5000000), wk =   0.0039062

     Initial potential from superposition of free atoms

     starting charge   95.87032, renormalised to   96.00000
     Starting wfcs are random

     Self-consistent Calculation

     iteration #  1     ecut=    60.00 Ry     beta= 0.30
     Davidson diagonalization with overlap
     ethr =  1.00E-02,  avg # of iterations =  7.4

     Threshold (ethr) on eigenvalues was too large:
     Diagonalizing with lowered threshold

     Davidson diagonalization with overlap
     ethr =  4.50E-04,  avg # of iterations =  1.0

     total energy              =   -1360.61817411 Ry
     Harris-Foulkes estimate   =   -1360.74630188 Ry
     estimated scf accuracy    <       0.43142113 Ry

[...]

     total energy              =   -1360.64334445 Ry
     Harris-Foulkes estimate   =   -1360.64334445 Ry
     estimated scf accuracy    <          2.0E-09 Ry

     iteration # 13     ecut=    60.00 Ry     beta= 0.30
     Davidson diagonalization with overlap
     ethr =  2.09E-12,  avg # of iterations =  2.0

     End of self-consistent calculation

          k = 0.0000 0.0000 0.0000 (  3887 PWs)   bands (ev):

   -87.6699 -87.6662 -87.6662 -87.6662 -48.0950 -48.0950 -48.0950 -48.0778
   -48.0778 -48.0778 -48.0778 -48.0778 -48.0778 -48.0656 -48.0656 -48.0656
    -5.0173  -3.6223  -3.6223  -3.6223   8.5071   8.5071   8.5071  11.0472
    11.0472  11.0472  11.0472  11.0472  11.0472  12.3195  12.3195  12.3195
    12.6311  12.6311  12.6311  13.5856  13.5856  13.5856  13.7856  13.7856
    14.1675  14.1675  14.1675  14.6579  14.6579  14.6579  14.6579  14.6579
    14.6579  14.6810  14.6810  14.6810  17.1419  21.9760  21.9760  21.9760
    26.0652  26.0652

[...]

          k = 0.3750-0.5000-0.5000 (  3872 PWs)   bands (ev):

[...]

          k =-0.5000-0.5000-0.5000 (  3840 PWs)   bands (ev):

   -87.6671 -87.6671 -87.6671 -87.6671 -48.0976 -48.0976 -48.0976 -48.0976
   -48.0700 -48.0700 -48.0700 -48.0700 -48.0700 -48.0700 -48.0700 -48.0700
    -3.6779  -3.6779  -3.6779  -3.6779   7.3057   7.3057   7.3057   7.3057
     9.9898   9.9898   9.9898   9.9898   9.9898   9.9898   9.9898   9.9898
    14.3901  14.3901  14.3901  14.3901  14.3901  14.3901  14.3901  14.3901
    14.7638  14.7638  14.7638  14.7638  16.6169  16.6169  16.6169  16.6169
    16.6169  16.6169  16.6169  16.6169  21.1986  21.1986  21.1986  21.1986
    25.5695  25.5695

     the Fermi energy is    15.3433 ev

!    total energy              =   -1360.64334445 Ry
     Harris-Foulkes estimate   =   -1360.64334445 Ry
     estimated scf accuracy    <          8.7E-11 Ry

     The total energy is the sum of the following terms:

     one-electron contribution =    -618.53993147 Ry
     hartree contribution      =     362.58094159 Ry
     xc contribution           =    -148.97748932 Ry
     ewald contribution        =    -955.70273635 Ry
     smearing contrib. (-TS)   =      -0.00412889 Ry

     convergence has been achieved in  13 iterations

     Writing output data file nio.save/

     General routines

   This run was terminated on:  11:37:54  22May2019

   JOB DONE.